(set-info :smt-lib-version 2.6)
(set-logic QF_BV)
(set-info :source |
Generated by: Maximilian A. Zinkus
Generated on: 2022-10-12
Generator: MCMPC
Application: Model counting optimization for MPC functionalities
Target solver: CryptoMinisat, Z3
|)
(set-info :license "https://creativecommons.org/licenses/by/4.0/")
(set-info :category "industrial")
(set-info :status unknown)
(declare-fun chosen_0 () Bool)
(declare-fun chosen () (_ BitVec 5))
(declare-fun chosen_1 () Bool)
(declare-fun chosen_2 () Bool)
(declare-fun chosen_3 () Bool)
(declare-fun chosen_4 () Bool)
(declare-fun target_0 () Bool)
(declare-fun target () (_ BitVec 5))
(declare-fun target_1 () Bool)
(declare-fun target_2 () Bool)
(declare-fun target_3 () Bool)
(declare-fun target_4 () Bool)
(declare-fun target_outcome0_t0 () (_ BitVec 5))
(declare-fun chosen_outcome0 () (_ BitVec 5))
(declare-fun target_outcome1_t0 () (_ BitVec 5))
(declare-fun chosen_outcome1 () (_ BitVec 5))
(declare-fun target_outcome2_t0 () (_ BitVec 5))
(declare-fun chosen_outcome2 () (_ BitVec 5))
(declare-fun target_outcome3_t0 () (_ BitVec 5))
(declare-fun chosen_outcome3 () (_ BitVec 5))
(declare-fun target_outcome4_t0 () (_ BitVec 5))
(declare-fun chosen_outcome4 () (_ BitVec 5))
(declare-fun target_outcome5_t0 () (_ BitVec 5))
(declare-fun chosen_outcome5 () (_ BitVec 5))
(declare-fun target_outcome6_t0 () (_ BitVec 5))
(declare-fun chosen_outcome6 () (_ BitVec 5))
(declare-fun target_outcome7_t0 () (_ BitVec 5))
(declare-fun chosen_outcome7 () (_ BitVec 5))
(declare-fun target_outcome8_t0 () (_ BitVec 5))
(declare-fun chosen_outcome8 () (_ BitVec 5))
(declare-fun target_outcome9_t0 () (_ BitVec 5))
(declare-fun chosen_outcome9 () (_ BitVec 5))
(declare-fun target_outcome10_t0 () (_ BitVec 5))
(declare-fun chosen_outcome10 () (_ BitVec 5))
(declare-fun target_outcome11_t0 () (_ BitVec 5))
(declare-fun chosen_outcome11 () (_ BitVec 5))
(declare-fun target_outcome12_t0 () (_ BitVec 5))
(declare-fun chosen_outcome12 () (_ BitVec 5))
(declare-fun target_outcome13_t0 () (_ BitVec 5))
(declare-fun chosen_outcome13 () (_ BitVec 5))
(declare-fun target_outcome14_t0 () (_ BitVec 5))
(declare-fun chosen_outcome14 () (_ BitVec 5))
(declare-fun target_outcome15_t0 () (_ BitVec 5))
(declare-fun chosen_outcome15 () (_ BitVec 5))
(declare-fun target_outcome16_t0 () (_ BitVec 5))
(declare-fun chosen_outcome16 () (_ BitVec 5))
(declare-fun target_outcome17_t0 () (_ BitVec 5))
(declare-fun chosen_outcome17 () (_ BitVec 5))
(declare-fun target_outcome18_t0 () (_ BitVec 5))
(declare-fun chosen_outcome18 () (_ BitVec 5))
(declare-fun target_outcome19_t0 () (_ BitVec 5))
(declare-fun chosen_outcome19 () (_ BitVec 5))
(declare-fun target_outcome20_t0 () (_ BitVec 5))
(declare-fun chosen_outcome20 () (_ BitVec 5))
(declare-fun target_outcome21_t0 () (_ BitVec 5))
(declare-fun chosen_outcome21 () (_ BitVec 5))
(declare-fun target_outcome22_t0 () (_ BitVec 5))
(declare-fun chosen_outcome22 () (_ BitVec 5))
(declare-fun target_outcome23_t0 () (_ BitVec 5))
(declare-fun chosen_outcome23 () (_ BitVec 5))
(declare-fun target_outcome24_t0 () (_ BitVec 5))
(declare-fun chosen_outcome24 () (_ BitVec 5))
(declare-fun target_outcome25_t0 () (_ BitVec 5))
(declare-fun chosen_outcome25 () (_ BitVec 5))
(declare-fun target_outcome26_t0 () (_ BitVec 5))
(declare-fun chosen_outcome26 () (_ BitVec 5))
(declare-fun target_outcome27_t0 () (_ BitVec 5))
(declare-fun chosen_outcome27 () (_ BitVec 5))
(declare-fun target_outcome28_t0 () (_ BitVec 5))
(declare-fun chosen_outcome28 () (_ BitVec 5))
(declare-fun target_outcome29_t0 () (_ BitVec 5))
(declare-fun chosen_outcome29 () (_ BitVec 5))
(declare-fun target_outcome30_t0 () (_ BitVec 5))
(declare-fun chosen_outcome30 () (_ BitVec 5))
(declare-fun target_outcome31_t0 () (_ BitVec 5))
(declare-fun chosen_outcome31 () (_ BitVec 5))
(declare-fun target_bit_7_0_bool () Bool)
(declare-fun target_bit_7_1_bool () Bool)
(declare-fun target_bit_7_2_bool () Bool)
(declare-fun target_bit_7_3_bool () Bool)
(declare-fun target_bit_7_4_bool () Bool)
(declare-fun target_bit_23_0_bool () Bool)
(declare-fun target_bit_23_1_bool () Bool)
(declare-fun target_bit_23_2_bool () Bool)
(declare-fun target_bit_23_3_bool () Bool)
(declare-fun target_bit_23_4_bool () Bool)
(declare-fun target_bit_8_0_bool () Bool)
(declare-fun target_bit_8_1_bool () Bool)
(declare-fun target_bit_8_2_bool () Bool)
(declare-fun target_bit_8_3_bool () Bool)
(declare-fun target_bit_8_4_bool () Bool)
(declare-fun target_bit_22_0_bool () Bool)
(declare-fun target_bit_22_1_bool () Bool)
(declare-fun target_bit_22_2_bool () Bool)
(declare-fun target_bit_22_3_bool () Bool)
(declare-fun target_bit_22_4_bool () Bool)
(declare-fun target_bit_9_0_bool () Bool)
(declare-fun target_bit_9_1_bool () Bool)
(declare-fun target_bit_9_2_bool () Bool)
(declare-fun target_bit_9_3_bool () Bool)
(declare-fun target_bit_9_4_bool () Bool)
(declare-fun target_bit_21_0_bool () Bool)
(declare-fun target_bit_21_1_bool () Bool)
(declare-fun target_bit_21_2_bool () Bool)
(declare-fun target_bit_21_3_bool () Bool)
(declare-fun target_bit_21_4_bool () Bool)
(declare-fun target_bit_10_0_bool () Bool)
(declare-fun target_bit_10_1_bool () Bool)
(declare-fun target_bit_10_2_bool () Bool)
(declare-fun target_bit_10_3_bool () Bool)
(declare-fun target_bit_10_4_bool () Bool)
(declare-fun target_bit_20_0_bool () Bool)
(declare-fun target_bit_20_1_bool () Bool)
(declare-fun target_bit_20_2_bool () Bool)
(declare-fun target_bit_20_3_bool () Bool)
(declare-fun target_bit_20_4_bool () Bool)
(declare-fun target_bit_11_0_bool () Bool)
(declare-fun target_bit_11_1_bool () Bool)
(declare-fun target_bit_11_2_bool () Bool)
(declare-fun target_bit_11_3_bool () Bool)
(declare-fun target_bit_11_4_bool () Bool)
(declare-fun target_bit_19_0_bool () Bool)
(declare-fun target_bit_19_1_bool () Bool)
(declare-fun target_bit_19_2_bool () Bool)
(declare-fun target_bit_19_3_bool () Bool)
(declare-fun target_bit_19_4_bool () Bool)
(declare-fun target_bit_12_0_bool () Bool)
(declare-fun target_bit_12_1_bool () Bool)
(declare-fun target_bit_12_2_bool () Bool)
(declare-fun target_bit_12_3_bool () Bool)
(declare-fun target_bit_12_4_bool () Bool)
(declare-fun target_bit_18_0_bool () Bool)
(declare-fun target_bit_18_1_bool () Bool)
(declare-fun target_bit_18_2_bool () Bool)
(declare-fun target_bit_18_3_bool () Bool)
(declare-fun target_bit_18_4_bool () Bool)
(declare-fun target_bit_13_0_bool () Bool)
(declare-fun target_bit_13_1_bool () Bool)
(declare-fun target_bit_13_2_bool () Bool)
(declare-fun target_bit_13_3_bool () Bool)
(declare-fun target_bit_13_4_bool () Bool)
(declare-fun target_bit_17_0_bool () Bool)
(declare-fun target_bit_17_1_bool () Bool)
(declare-fun target_bit_17_2_bool () Bool)
(declare-fun target_bit_17_3_bool () Bool)
(declare-fun target_bit_17_4_bool () Bool)
(declare-fun target_bit_14_0_bool () Bool)
(declare-fun target_bit_14_1_bool () Bool)
(declare-fun target_bit_14_2_bool () Bool)
(declare-fun target_bit_14_3_bool () Bool)
(declare-fun target_bit_14_4_bool () Bool)
(declare-fun target_bit_16_0_bool () Bool)
(declare-fun target_bit_16_1_bool () Bool)
(declare-fun target_bit_16_2_bool () Bool)
(declare-fun target_bit_16_3_bool () Bool)
(declare-fun target_bit_16_4_bool () Bool)
(declare-fun target_bit_15_0_bool () Bool)
(declare-fun target_bit_15_1_bool () Bool)
(declare-fun target_bit_15_2_bool () Bool)
(declare-fun target_bit_15_3_bool () Bool)
(declare-fun target_bit_15_4_bool () Bool)
(assert
 (= (= (_ bv1 1) ((_ extract 0 0) chosen)) (= chosen_0 true)))
(assert
 (= (= (_ bv1 1) ((_ extract 1 1) chosen)) (= chosen_1 true)))
(assert
 (= (= (_ bv1 1) ((_ extract 2 2) chosen)) (= chosen_2 true)))
(assert
 (= (= (_ bv1 1) ((_ extract 3 3) chosen)) (= chosen_3 true)))
(assert
 (= (= (_ bv1 1) ((_ extract 4 4) chosen)) (= chosen_4 true)))
(assert
 (= (= (_ bv1 1) ((_ extract 0 0) target)) (= target_0 true)))
(assert
 (= (= (_ bv1 1) ((_ extract 1 1) target)) (= target_1 true)))
(assert
 (= (= (_ bv1 1) ((_ extract 2 2) target)) (= target_2 true)))
(assert
 (= (= (_ bv1 1) ((_ extract 3 3) target)) (= target_3 true)))
(assert
 (= (= (_ bv1 1) ((_ extract 4 4) target)) (= target_4 true)))
(assert
 (let ((?x114 (bvadd (bvand chosen_outcome0 target_outcome0_t0) (bvlshr (bvxor chosen_outcome0 target_outcome0_t0) (_ bv1 5)))))
 (= (_ bv0 5) ?x114)))
(assert
 (let ((?x170 (bvadd (bvand chosen_outcome1 target_outcome1_t0) (bvlshr (bvxor chosen_outcome1 target_outcome1_t0) (_ bv1 5)))))
 (= (_ bv1 5) ?x170)))
(assert
 (let ((?x164 (bvadd (bvand chosen_outcome2 target_outcome2_t0) (bvlshr (bvxor chosen_outcome2 target_outcome2_t0) (_ bv1 5)))))
 (= (_ bv2 5) ?x164)))
(assert
 (let ((?x129 (bvadd (bvand chosen_outcome3 target_outcome3_t0) (bvlshr (bvxor chosen_outcome3 target_outcome3_t0) (_ bv1 5)))))
 (= (_ bv3 5) ?x129)))
(assert
 (let ((?x147 (bvadd (bvand chosen_outcome4 target_outcome4_t0) (bvlshr (bvxor chosen_outcome4 target_outcome4_t0) (_ bv1 5)))))
 (= (_ bv4 5) ?x147)))
(assert
 (let ((?x117 (bvadd (bvand chosen_outcome5 target_outcome5_t0) (bvlshr (bvxor chosen_outcome5 target_outcome5_t0) (_ bv1 5)))))
 (= (_ bv5 5) ?x117)))
(assert
 (let ((?x125 (bvadd (bvand chosen_outcome6 target_outcome6_t0) (bvlshr (bvxor chosen_outcome6 target_outcome6_t0) (_ bv1 5)))))
 (= (_ bv6 5) ?x125)))
(assert
 (let ((?x93 (bvadd (bvand chosen_outcome7 target_outcome7_t0) (bvlshr (bvxor chosen_outcome7 target_outcome7_t0) (_ bv1 5)))))
 (= (_ bv7 5) ?x93)))
(assert
 (let ((?x97 (bvadd (bvand chosen_outcome8 target_outcome8_t0) (bvlshr (bvxor chosen_outcome8 target_outcome8_t0) (_ bv1 5)))))
 (= (_ bv8 5) ?x97)))
(assert
 (let ((?x63 (bvadd (bvand chosen_outcome9 target_outcome9_t0) (bvlshr (bvxor chosen_outcome9 target_outcome9_t0) (_ bv1 5)))))
 (= (_ bv9 5) ?x63)))
(assert
 (let ((?x113 (bvadd (bvand chosen_outcome10 target_outcome10_t0) (bvlshr (bvxor chosen_outcome10 target_outcome10_t0) (_ bv1 5)))))
 (= (_ bv10 5) ?x113)))
(assert
 (let ((?x60 (bvadd (bvand chosen_outcome11 target_outcome11_t0) (bvlshr (bvxor chosen_outcome11 target_outcome11_t0) (_ bv1 5)))))
 (= (_ bv11 5) ?x60)))
(assert
 (let ((?x183 (bvadd (bvand chosen_outcome12 target_outcome12_t0) (bvlshr (bvxor chosen_outcome12 target_outcome12_t0) (_ bv1 5)))))
 (= (_ bv12 5) ?x183)))
(assert
 (let ((?x194 (bvadd (bvand chosen_outcome13 target_outcome13_t0) (bvlshr (bvxor chosen_outcome13 target_outcome13_t0) (_ bv1 5)))))
 (= (_ bv13 5) ?x194)))
(assert
 (let ((?x201 (bvadd (bvand chosen_outcome14 target_outcome14_t0) (bvlshr (bvxor chosen_outcome14 target_outcome14_t0) (_ bv1 5)))))
 (= (_ bv14 5) ?x201)))
(assert
 (let ((?x209 (bvadd (bvand chosen_outcome15 target_outcome15_t0) (bvlshr (bvxor chosen_outcome15 target_outcome15_t0) (_ bv1 5)))))
 (= (_ bv15 5) ?x209)))
(assert
 (let ((?x217 (bvadd (bvand chosen_outcome16 target_outcome16_t0) (bvlshr (bvxor chosen_outcome16 target_outcome16_t0) (_ bv1 5)))))
 (= (_ bv16 5) ?x217)))
(assert
 (let ((?x225 (bvadd (bvand chosen_outcome17 target_outcome17_t0) (bvlshr (bvxor chosen_outcome17 target_outcome17_t0) (_ bv1 5)))))
 (= (_ bv17 5) ?x225)))
(assert
 (let ((?x233 (bvadd (bvand chosen_outcome18 target_outcome18_t0) (bvlshr (bvxor chosen_outcome18 target_outcome18_t0) (_ bv1 5)))))
 (= (_ bv18 5) ?x233)))
(assert
 (let ((?x241 (bvadd (bvand chosen_outcome19 target_outcome19_t0) (bvlshr (bvxor chosen_outcome19 target_outcome19_t0) (_ bv1 5)))))
 (= (_ bv19 5) ?x241)))
(assert
 (let ((?x249 (bvadd (bvand chosen_outcome20 target_outcome20_t0) (bvlshr (bvxor chosen_outcome20 target_outcome20_t0) (_ bv1 5)))))
 (= (_ bv20 5) ?x249)))
(assert
 (let ((?x257 (bvadd (bvand chosen_outcome21 target_outcome21_t0) (bvlshr (bvxor chosen_outcome21 target_outcome21_t0) (_ bv1 5)))))
 (= (_ bv21 5) ?x257)))
(assert
 (let ((?x264 (bvadd (bvand chosen_outcome22 target_outcome22_t0) (bvlshr (bvxor chosen_outcome22 target_outcome22_t0) (_ bv1 5)))))
 (= (_ bv22 5) ?x264)))
(assert
 (let ((?x272 (bvadd (bvand chosen_outcome23 target_outcome23_t0) (bvlshr (bvxor chosen_outcome23 target_outcome23_t0) (_ bv1 5)))))
 (= (_ bv23 5) ?x272)))
(assert
 (let ((?x280 (bvadd (bvand chosen_outcome24 target_outcome24_t0) (bvlshr (bvxor chosen_outcome24 target_outcome24_t0) (_ bv1 5)))))
 (= (_ bv24 5) ?x280)))
(assert
 (let ((?x288 (bvadd (bvand chosen_outcome25 target_outcome25_t0) (bvlshr (bvxor chosen_outcome25 target_outcome25_t0) (_ bv1 5)))))
 (= (_ bv25 5) ?x288)))
(assert
 (let ((?x296 (bvadd (bvand chosen_outcome26 target_outcome26_t0) (bvlshr (bvxor chosen_outcome26 target_outcome26_t0) (_ bv1 5)))))
 (= (_ bv26 5) ?x296)))
(assert
 (let ((?x304 (bvadd (bvand chosen_outcome27 target_outcome27_t0) (bvlshr (bvxor chosen_outcome27 target_outcome27_t0) (_ bv1 5)))))
 (= (_ bv27 5) ?x304)))
(assert
 (let ((?x312 (bvadd (bvand chosen_outcome28 target_outcome28_t0) (bvlshr (bvxor chosen_outcome28 target_outcome28_t0) (_ bv1 5)))))
 (= (_ bv28 5) ?x312)))
(assert
 (let ((?x320 (bvadd (bvand chosen_outcome29 target_outcome29_t0) (bvlshr (bvxor chosen_outcome29 target_outcome29_t0) (_ bv1 5)))))
 (= (_ bv29 5) ?x320)))
(assert
 (let ((?x328 (bvadd (bvand chosen_outcome30 target_outcome30_t0) (bvlshr (bvxor chosen_outcome30 target_outcome30_t0) (_ bv1 5)))))
 (= (_ bv30 5) ?x328)))
(assert
 (let ((?x335 (bvadd (bvand chosen_outcome31 target_outcome31_t0) (bvlshr (bvxor chosen_outcome31 target_outcome31_t0) (_ bv1 5)))))
 (= (_ bv31 5) ?x335)))
(assert
 (= chosen chosen_outcome7))
(assert
 (= chosen chosen_outcome23))
(assert
 (= chosen chosen_outcome8))
(assert
 (= chosen chosen_outcome22))
(assert
 (= chosen chosen_outcome9))
(assert
 (= chosen chosen_outcome21))
(assert
 (= chosen chosen_outcome10))
(assert
 (= chosen chosen_outcome20))
(assert
 (= chosen chosen_outcome11))
(assert
 (= chosen chosen_outcome19))
(assert
 (= chosen chosen_outcome12))
(assert
 (= chosen chosen_outcome18))
(assert
 (= chosen chosen_outcome13))
(assert
 (= chosen chosen_outcome17))
(assert
 (= chosen chosen_outcome14))
(assert
 (= chosen chosen_outcome16))
(assert
 (= chosen chosen_outcome15))
(assert
 (= (= (_ bv1 1) ((_ extract 0 0) target_outcome7_t0)) (= target_bit_7_0_bool true)))
(assert
 (= (= (_ bv1 1) ((_ extract 1 1) target_outcome7_t0)) (= target_bit_7_1_bool true)))
(assert
 (= (= (_ bv1 1) ((_ extract 2 2) target_outcome7_t0)) (= target_bit_7_2_bool true)))
(assert
 (= (= (_ bv1 1) ((_ extract 3 3) target_outcome7_t0)) (= target_bit_7_3_bool true)))
(assert
 (= (= (_ bv1 1) ((_ extract 4 4) target_outcome7_t0)) (= target_bit_7_4_bool true)))
(assert
 (= (= (_ bv1 1) ((_ extract 0 0) target_outcome23_t0)) (= target_bit_23_0_bool true)))
(assert
 (= (= (_ bv1 1) ((_ extract 1 1) target_outcome23_t0)) (= target_bit_23_1_bool true)))
(assert
 (= (= (_ bv1 1) ((_ extract 2 2) target_outcome23_t0)) (= target_bit_23_2_bool true)))
(assert
 (= (= (_ bv1 1) ((_ extract 3 3) target_outcome23_t0)) (= target_bit_23_3_bool true)))
(assert
 (= (= (_ bv1 1) ((_ extract 4 4) target_outcome23_t0)) (= target_bit_23_4_bool true)))
(assert
 (= (= (_ bv1 1) ((_ extract 0 0) target_outcome8_t0)) (= target_bit_8_0_bool true)))
(assert
 (= (= (_ bv1 1) ((_ extract 1 1) target_outcome8_t0)) (= target_bit_8_1_bool true)))
(assert
 (= (= (_ bv1 1) ((_ extract 2 2) target_outcome8_t0)) (= target_bit_8_2_bool true)))
(assert
 (= (= (_ bv1 1) ((_ extract 3 3) target_outcome8_t0)) (= target_bit_8_3_bool true)))
(assert
 (= (= (_ bv1 1) ((_ extract 4 4) target_outcome8_t0)) (= target_bit_8_4_bool true)))
(assert
 (= (= (_ bv1 1) ((_ extract 0 0) target_outcome22_t0)) (= target_bit_22_0_bool true)))
(assert
 (= (= (_ bv1 1) ((_ extract 1 1) target_outcome22_t0)) (= target_bit_22_1_bool true)))
(assert
 (= (= (_ bv1 1) ((_ extract 2 2) target_outcome22_t0)) (= target_bit_22_2_bool true)))
(assert
 (= (= (_ bv1 1) ((_ extract 3 3) target_outcome22_t0)) (= target_bit_22_3_bool true)))
(assert
 (= (= (_ bv1 1) ((_ extract 4 4) target_outcome22_t0)) (= target_bit_22_4_bool true)))
(assert
 (= (= (_ bv1 1) ((_ extract 0 0) target_outcome9_t0)) (= target_bit_9_0_bool true)))
(assert
 (= (= (_ bv1 1) ((_ extract 1 1) target_outcome9_t0)) (= target_bit_9_1_bool true)))
(assert
 (= (= (_ bv1 1) ((_ extract 2 2) target_outcome9_t0)) (= target_bit_9_2_bool true)))
(assert
 (= (= (_ bv1 1) ((_ extract 3 3) target_outcome9_t0)) (= target_bit_9_3_bool true)))
(assert
 (= (= (_ bv1 1) ((_ extract 4 4) target_outcome9_t0)) (= target_bit_9_4_bool true)))
(assert
 (= (= (_ bv1 1) ((_ extract 0 0) target_outcome21_t0)) (= target_bit_21_0_bool true)))
(assert
 (= (= (_ bv1 1) ((_ extract 1 1) target_outcome21_t0)) (= target_bit_21_1_bool true)))
(assert
 (= (= (_ bv1 1) ((_ extract 2 2) target_outcome21_t0)) (= target_bit_21_2_bool true)))
(assert
 (= (= (_ bv1 1) ((_ extract 3 3) target_outcome21_t0)) (= target_bit_21_3_bool true)))
(assert
 (= (= (_ bv1 1) ((_ extract 4 4) target_outcome21_t0)) (= target_bit_21_4_bool true)))
(assert
 (= (= (_ bv1 1) ((_ extract 0 0) target_outcome10_t0)) (= target_bit_10_0_bool true)))
(assert
 (= (= (_ bv1 1) ((_ extract 1 1) target_outcome10_t0)) (= target_bit_10_1_bool true)))
(assert
 (= (= (_ bv1 1) ((_ extract 2 2) target_outcome10_t0)) (= target_bit_10_2_bool true)))
(assert
 (= (= (_ bv1 1) ((_ extract 3 3) target_outcome10_t0)) (= target_bit_10_3_bool true)))
(assert
 (= (= (_ bv1 1) ((_ extract 4 4) target_outcome10_t0)) (= target_bit_10_4_bool true)))
(assert
 (= (= (_ bv1 1) ((_ extract 0 0) target_outcome20_t0)) (= target_bit_20_0_bool true)))
(assert
 (= (= (_ bv1 1) ((_ extract 1 1) target_outcome20_t0)) (= target_bit_20_1_bool true)))
(assert
 (= (= (_ bv1 1) ((_ extract 2 2) target_outcome20_t0)) (= target_bit_20_2_bool true)))
(assert
 (= (= (_ bv1 1) ((_ extract 3 3) target_outcome20_t0)) (= target_bit_20_3_bool true)))
(assert
 (= (= (_ bv1 1) ((_ extract 4 4) target_outcome20_t0)) (= target_bit_20_4_bool true)))
(assert
 (= (= (_ bv1 1) ((_ extract 0 0) target_outcome11_t0)) (= target_bit_11_0_bool true)))
(assert
 (= (= (_ bv1 1) ((_ extract 1 1) target_outcome11_t0)) (= target_bit_11_1_bool true)))
(assert
 (= (= (_ bv1 1) ((_ extract 2 2) target_outcome11_t0)) (= target_bit_11_2_bool true)))
(assert
 (= (= (_ bv1 1) ((_ extract 3 3) target_outcome11_t0)) (= target_bit_11_3_bool true)))
(assert
 (= (= (_ bv1 1) ((_ extract 4 4) target_outcome11_t0)) (= target_bit_11_4_bool true)))
(assert
 (= (= (_ bv1 1) ((_ extract 0 0) target_outcome19_t0)) (= target_bit_19_0_bool true)))
(assert
 (= (= (_ bv1 1) ((_ extract 1 1) target_outcome19_t0)) (= target_bit_19_1_bool true)))
(assert
 (= (= (_ bv1 1) ((_ extract 2 2) target_outcome19_t0)) (= target_bit_19_2_bool true)))
(assert
 (= (= (_ bv1 1) ((_ extract 3 3) target_outcome19_t0)) (= target_bit_19_3_bool true)))
(assert
 (= (= (_ bv1 1) ((_ extract 4 4) target_outcome19_t0)) (= target_bit_19_4_bool true)))
(assert
 (= (= (_ bv1 1) ((_ extract 0 0) target_outcome12_t0)) (= target_bit_12_0_bool true)))
(assert
 (= (= (_ bv1 1) ((_ extract 1 1) target_outcome12_t0)) (= target_bit_12_1_bool true)))
(assert
 (= (= (_ bv1 1) ((_ extract 2 2) target_outcome12_t0)) (= target_bit_12_2_bool true)))
(assert
 (= (= (_ bv1 1) ((_ extract 3 3) target_outcome12_t0)) (= target_bit_12_3_bool true)))
(assert
 (= (= (_ bv1 1) ((_ extract 4 4) target_outcome12_t0)) (= target_bit_12_4_bool true)))
(assert
 (= (= (_ bv1 1) ((_ extract 0 0) target_outcome18_t0)) (= target_bit_18_0_bool true)))
(assert
 (= (= (_ bv1 1) ((_ extract 1 1) target_outcome18_t0)) (= target_bit_18_1_bool true)))
(assert
 (= (= (_ bv1 1) ((_ extract 2 2) target_outcome18_t0)) (= target_bit_18_2_bool true)))
(assert
 (= (= (_ bv1 1) ((_ extract 3 3) target_outcome18_t0)) (= target_bit_18_3_bool true)))
(assert
 (= (= (_ bv1 1) ((_ extract 4 4) target_outcome18_t0)) (= target_bit_18_4_bool true)))
(assert
 (= (= (_ bv1 1) ((_ extract 0 0) target_outcome13_t0)) (= target_bit_13_0_bool true)))
(assert
 (= (= (_ bv1 1) ((_ extract 1 1) target_outcome13_t0)) (= target_bit_13_1_bool true)))
(assert
 (= (= (_ bv1 1) ((_ extract 2 2) target_outcome13_t0)) (= target_bit_13_2_bool true)))
(assert
 (= (= (_ bv1 1) ((_ extract 3 3) target_outcome13_t0)) (= target_bit_13_3_bool true)))
(assert
 (= (= (_ bv1 1) ((_ extract 4 4) target_outcome13_t0)) (= target_bit_13_4_bool true)))
(assert
 (= (= (_ bv1 1) ((_ extract 0 0) target_outcome17_t0)) (= target_bit_17_0_bool true)))
(assert
 (= (= (_ bv1 1) ((_ extract 1 1) target_outcome17_t0)) (= target_bit_17_1_bool true)))
(assert
 (= (= (_ bv1 1) ((_ extract 2 2) target_outcome17_t0)) (= target_bit_17_2_bool true)))
(assert
 (= (= (_ bv1 1) ((_ extract 3 3) target_outcome17_t0)) (= target_bit_17_3_bool true)))
(assert
 (= (= (_ bv1 1) ((_ extract 4 4) target_outcome17_t0)) (= target_bit_17_4_bool true)))
(assert
 (= (= (_ bv1 1) ((_ extract 0 0) target_outcome14_t0)) (= target_bit_14_0_bool true)))
(assert
 (= (= (_ bv1 1) ((_ extract 1 1) target_outcome14_t0)) (= target_bit_14_1_bool true)))
(assert
 (= (= (_ bv1 1) ((_ extract 2 2) target_outcome14_t0)) (= target_bit_14_2_bool true)))
(assert
 (= (= (_ bv1 1) ((_ extract 3 3) target_outcome14_t0)) (= target_bit_14_3_bool true)))
(assert
 (= (= (_ bv1 1) ((_ extract 4 4) target_outcome14_t0)) (= target_bit_14_4_bool true)))
(assert
 (= (= (_ bv1 1) ((_ extract 0 0) target_outcome16_t0)) (= target_bit_16_0_bool true)))
(assert
 (= (= (_ bv1 1) ((_ extract 1 1) target_outcome16_t0)) (= target_bit_16_1_bool true)))
(assert
 (= (= (_ bv1 1) ((_ extract 2 2) target_outcome16_t0)) (= target_bit_16_2_bool true)))
(assert
 (= (= (_ bv1 1) ((_ extract 3 3) target_outcome16_t0)) (= target_bit_16_3_bool true)))
(assert
 (= (= (_ bv1 1) ((_ extract 4 4) target_outcome16_t0)) (= target_bit_16_4_bool true)))
(assert
 (= (= (_ bv1 1) ((_ extract 0 0) target_outcome15_t0)) (= target_bit_15_0_bool true)))
(assert
 (= (= (_ bv1 1) ((_ extract 1 1) target_outcome15_t0)) (= target_bit_15_1_bool true)))
(assert
 (= (= (_ bv1 1) ((_ extract 2 2) target_outcome15_t0)) (= target_bit_15_2_bool true)))
(assert
 (= (= (_ bv1 1) ((_ extract 3 3) target_outcome15_t0)) (= target_bit_15_3_bool true)))
(assert
 (= (= (_ bv1 1) ((_ extract 4 4) target_outcome15_t0)) (= target_bit_15_4_bool true)))
(check-sat)
(exit)